(set-info :source |printed by MathSAT|)
(declare-fun call_mesi.ite3 () Int)
(declare-fun call_mesi.flby () Int)
(declare-fun call_mesi.ite.next () Int)
(declare-fun call_excludes4.excludes () Bool)
(declare-fun call_mesi.ite13.next () Int)
(declare-fun call_mesi.ite32 () Int)
(declare-fun call_mesi.modified_me.next () Int)
(declare-fun call_mesi.ite8 () Int)
(declare-fun call_mesi.ite14.next () Int)
(declare-fun call_mesi.ite13 () Int)
(declare-fun call_mesi.ite28.next () Int)
(declare-fun call_mesi.exclusive_me.next () Int)
(declare-fun call_excludes4.excludes.next () Bool)
(declare-fun call_mesi.shared_me.next () Int)
(declare-fun call_mesi.invalid_me () Int)
(declare-fun call_mesi.ite16.next () Int)
(declare-fun shared_me () Int)
(declare-fun call_mesi.ite18 () Int)
(declare-fun call_mesi.ite2 () Int)
(declare-fun call_mesi.ite7 () Int)
(declare-fun call_mesi.ite2.next () Int)
(declare-fun call_Abs3.Abs () Int)
(declare-fun call_mesi.flby2.next () Int)
(declare-fun call_mesi.ite11 () Int)
(declare-fun call_mesi.ite9.next () Int)
(declare-fun call_Abs2.Abs.next () Int)
(declare-fun call_mesi.ite32.next () Int)
(declare-fun call_mesi.ite10.next () Int)
(declare-fun call_mesi.shared_me () Int)
(declare-fun call_mesi.ite18.next () Int)
(declare-fun call_mesi.exclusive_me () Int)
(declare-fun call_mesi.ite29 () Int)
(declare-fun call_mesi.ite19.next () Int)
(declare-fun call_Abs2.Abs () Int)
(declare-fun call_mesi.ite3.next () Int)
(declare-fun call_mesi.ite11.next () Int)
(declare-fun modified_me () Int)
(declare-fun call_mesi.ite30.next () Int)
(declare-fun call_Abs3.ite () Int)
(declare-fun call_mesi.ite24.next () Int)
(declare-fun call_mesi.modified_me () Int)
(declare-fun call_mesi.flby4 () Int)
(declare-fun call_mesi.ite27 () Int)
(declare-fun call_mesi.ite8.next () Int)
(declare-fun invalid_me () Int)
(declare-fun call_Abs4.Abs () Int)
(declare-fun call_mesi.ite19 () Int)
(declare-fun call_mesi.flby2 () Int)
(declare-fun call_mesi.ite10 () Int)
(declare-fun param_etat_me2.next () Bool)
(declare-fun call_mesi.ite27.next () Int)
(declare-fun param_etat_me4.next () Bool)
(declare-fun call_mesi.garde_me1.next () Bool)
(declare-fun param_etat_me1 () Bool)
(declare-fun call_Abs4.ite.next () Int)
(declare-fun call_mesi.ite6.next () Int)
(declare-fun call_mesi.ite16 () Int)
(declare-fun call_Abs3.Abs.next () Int)
(declare-fun call_mesi.ite31 () Int)
(declare-fun call_Abs.ite () Int)
(declare-fun call_mesi.ite12.next () Int)
(declare-fun call_mesi.ite29.next () Int)
(declare-fun call_mesi.ite4.next () Int)
(declare-fun invalid_me.next () Int)
(declare-fun call_Sofar.Sofar () Bool)
(declare-fun modified_me.next () Int)
(declare-fun call_mesi.ite5.next () Int)
(declare-fun param_etat_me3 () Bool)
(declare-fun call_mesi.ite15 () Int)
(declare-fun _OK_ () Bool)
(declare-fun exclusive_me.next () Int)
(declare-fun call_mesi.ite15.next () Int)
(declare-fun call_mesi.ite17 () Int)
(declare-fun call_mesi.ite20.next () Int)
(declare-fun shared_me.next () Int)
(declare-fun param_etat_me2 () Bool)
(declare-fun call_mesi.ite6 () Int)
(declare-fun _OK_.next () Bool)
(declare-fun call_Sofar.Sofar.next () Bool)
(declare-fun call_mesi.invalid_me.next () Int)
(declare-fun call_Sofar.flby () Bool)
(declare-fun call_Abs2.ite () Int)
(declare-fun call_mesi.ite26 () Int)
(declare-fun call_mesi.ite26.next () Int)
(declare-fun exclusive_me () Int)
(declare-fun param_etat_me1.next () Bool)
(declare-fun call_mesi.ite21 () Int)
(declare-fun call_mesi.ite25 () Int)
(declare-fun env.next () Bool)
(declare-fun call_mesi.ite30 () Int)
(declare-fun call_mesi.ite7.next () Int)
(declare-fun call_mesi.ite9 () Int)
(declare-fun call_mesi.ite31.next () Int)
(declare-fun call_mesi.flby4.next () Int)
(declare-fun call_mesi.ite14 () Int)
(declare-fun param_etat_me4 () Bool)
(declare-fun call_mesi.garde_me4.next () Bool)
(declare-fun call_mesi.ite22.next () Int)
(declare-fun call_Abs.ite.next () Int)
(declare-fun call_mesi.ite () Int)
(declare-fun param_etat_me3.next () Bool)
(declare-fun env () Bool)
(declare-fun call_mesi.ite23 () Int)
(declare-fun call_mesi.ite23.next () Int)
(declare-fun call_Abs2.ite.next () Int)
(declare-fun call_mesi.ite24 () Int)
(declare-fun call_mesi.ite21.next () Int)
(declare-fun call_Abs4.Abs.next () Int)
(declare-fun call_Abs3.ite.next () Int)
(declare-fun call_mesi.ite17.next () Int)
(declare-fun call_mesi.flby3 () Int)
(declare-fun call_mesi.ite22 () Int)
(declare-fun call_mesi.flby.next () Int)
(declare-fun call_Abs.Abs () Int)
(declare-fun call_mesi.garde_me2.next () Bool)
(declare-fun call_mesi.garde_me3.next () Bool)
(declare-fun call_mesi.ite5 () Int)
(declare-fun call_Abs.Abs.next () Int)
(declare-fun call_mesi.flby3.next () Int)
(declare-fun call_mesi.ite25.next () Int)
(declare-fun call_Sofar.flby.next () Bool)
(declare-fun call_Abs4.ite () Int)
(define-fun .def_1375 () Bool (= call_Abs4.Abs.next call_Abs4.ite.next))
(define-fun .def_1373 () Bool (= call_Abs3.Abs.next call_Abs3.ite.next))
(define-fun .def_1371 () Bool (= call_Abs2.Abs.next call_Abs2.ite.next))
(define-fun .def_1369 () Bool (= call_Abs.Abs.next call_Abs.ite.next))
(define-fun .def_1367 () Bool (= call_Sofar.flby.next call_Sofar.Sofar.next))
(define-fun .def_1362 () Bool (and param_etat_me4.next param_etat_me3.next))
(define-fun .def_1360 () Bool (and param_etat_me4.next param_etat_me2.next))
(define-fun .def_1358 () Bool (and param_etat_me3.next param_etat_me2.next))
(define-fun .def_1355 () Bool (and param_etat_me2.next param_etat_me1.next))
(define-fun .def_1354 () Bool (and param_etat_me3.next param_etat_me1.next))
(define-fun .def_1356 () Bool (or .def_1354 .def_1355))
(define-fun .def_1353 () Bool (and param_etat_me4.next param_etat_me1.next))
(define-fun .def_1357 () Bool (or .def_1353 .def_1356))
(define-fun .def_1359 () Bool (or .def_1357 .def_1358))
(define-fun .def_1361 () Bool (or .def_1359 .def_1360))
(define-fun .def_1363 () Bool (or .def_1361 .def_1362))
(define-fun .def_1364 () Bool (not .def_1363))
(define-fun .def_1365 () Bool (= call_excludes4.excludes.next .def_1364))
(define-fun .def_1351 () Bool (= call_mesi.flby4.next call_mesi.invalid_me.next))
(define-fun .def_1349 () Bool (= call_mesi.flby3.next call_mesi.shared_me.next))
(define-fun .def_1347 () Bool (= call_mesi.flby2.next call_mesi.exclusive_me.next))
(define-fun .def_1345 () Bool (= call_mesi.flby.next call_mesi.modified_me.next))
(define-fun .def_1341 () Bool (= call_mesi.ite32.next call_mesi.ite31.next))
(define-fun .def_1342 () Bool (or param_etat_me1.next .def_1341))
(define-fun .def_1338 () Bool (= call_mesi.ite25.next call_mesi.ite32.next))
(define-fun .def_1323 () Bool (not param_etat_me1.next))
(define-fun .def_1339 () Bool (or .def_1323 .def_1338))
(define-fun .def_1335 () Bool (= call_mesi.ite24.next call_mesi.ite23.next))
(define-fun .def_1336 () Bool (or param_etat_me1.next .def_1335))
(define-fun .def_1332 () Bool (= call_mesi.ite17.next call_mesi.ite24.next))
(define-fun .def_1333 () Bool (or .def_1323 .def_1332))
(define-fun .def_1329 () Bool (= call_mesi.ite16.next call_mesi.ite15.next))
(define-fun .def_1330 () Bool (or param_etat_me1.next .def_1329))
(define-fun .def_1326 () Bool (= call_mesi.ite9.next call_mesi.ite16.next))
(define-fun .def_1327 () Bool (or .def_1323 .def_1326))
(define-fun .def_1322 () Bool (= call_mesi.ite.next call_mesi.ite8.next))
(define-fun .def_1324 () Bool (or .def_1322 .def_1323))
(define-fun .def_1319 () Bool (= call_mesi.ite8.next call_mesi.ite7.next))
(define-fun .def_1321 () Bool (or .def_1319 param_etat_me1.next))
(define-fun .def_1325 () Bool (and .def_1321 .def_1324))
(define-fun .def_1328 () Bool (and .def_1325 .def_1327))
(define-fun .def_1331 () Bool (and .def_1328 .def_1330))
(define-fun .def_1334 () Bool (and .def_1331 .def_1333))
(define-fun .def_1337 () Bool (and .def_1334 .def_1336))
(define-fun .def_1340 () Bool (and .def_1337 .def_1339))
(define-fun .def_1343 () Bool (and .def_1340 .def_1342))
(define-fun .def_1317 () Bool (= env.next call_Sofar.Sofar.next))
(define-fun .def_1313 () Bool (= invalid_me.next call_mesi.invalid_me.next))
(define-fun .def_1308 () Int (+ invalid_me.next call_Abs4.ite.next))
(define-fun .def_1309 () Bool (= .def_1308 0))
(define-fun .def_1305 () Bool (<= 0 invalid_me.next))
(define-fun .def_1310 () Bool (or .def_1305 .def_1309))
(define-fun .def_1306 () Bool (not .def_1305))
(define-fun .def_1304 () Bool (= invalid_me.next call_Abs4.ite.next))
(define-fun .def_1307 () Bool (or .def_1304 .def_1306))
(define-fun .def_1311 () Bool (and .def_1307 .def_1310))
(define-fun .def_1314 () Bool (and .def_1311 .def_1313))
(define-fun .def_1299 () Bool (= shared_me.next call_mesi.shared_me.next))
(define-fun .def_1294 () Int (+ shared_me.next call_Abs3.ite.next))
(define-fun .def_1295 () Bool (= .def_1294 0))
(define-fun .def_1291 () Bool (<= 0 shared_me.next))
(define-fun .def_1296 () Bool (or .def_1291 .def_1295))
(define-fun .def_1292 () Bool (not .def_1291))
(define-fun .def_1290 () Bool (= shared_me.next call_Abs3.ite.next))
(define-fun .def_1293 () Bool (or .def_1290 .def_1292))
(define-fun .def_1297 () Bool (and .def_1293 .def_1296))
(define-fun .def_1300 () Bool (and .def_1297 .def_1299))
(define-fun .def_1285 () Bool (= exclusive_me.next call_mesi.exclusive_me.next))
(define-fun .def_1280 () Int (+ exclusive_me.next call_Abs2.ite.next))
(define-fun .def_1281 () Bool (= .def_1280 0))
(define-fun .def_1277 () Bool (<= 0 exclusive_me.next))
(define-fun .def_1282 () Bool (or .def_1277 .def_1281))
(define-fun .def_1278 () Bool (not .def_1277))
(define-fun .def_1276 () Bool (= exclusive_me.next call_Abs2.ite.next))
(define-fun .def_1279 () Bool (or .def_1276 .def_1278))
(define-fun .def_1283 () Bool (and .def_1279 .def_1282))
(define-fun .def_1286 () Bool (and .def_1283 .def_1285))
(define-fun .def_1271 () Bool (= modified_me.next call_mesi.modified_me.next))
(define-fun .def_1266 () Int (+ modified_me.next call_Abs.ite.next))
(define-fun .def_1267 () Bool (= .def_1266 0))
(define-fun .def_1263 () Bool (<= 0 modified_me.next))
(define-fun .def_1268 () Bool (or .def_1263 .def_1267))
(define-fun .def_1264 () Bool (not .def_1263))
(define-fun .def_1262 () Bool (= modified_me.next call_Abs.ite.next))
(define-fun .def_1265 () Bool (or .def_1262 .def_1264))
(define-fun .def_1269 () Bool (and .def_1265 .def_1268))
(define-fun .def_1272 () Bool (and .def_1269 .def_1271))
(define-fun .def_1253 () Int (+ call_Abs3.Abs.next call_Abs4.Abs.next))
(define-fun .def_1254 () Int (+ call_Abs2.Abs.next .def_1253))
(define-fun .def_1255 () Int (+ call_Abs.Abs.next .def_1254))
(define-fun .def_1256 () Bool (<= .def_1255 3))
(define-fun .def_1245 () Bool (not env.next))
(define-fun .def_1257 () Bool (or .def_1245 .def_1256))
(define-fun .def_1258 () Bool (= _OK_.next .def_1257))
(define-fun .def_1239 () Bool (= call_mesi.ite30.next call_mesi.ite31.next))
(define-fun .def_1240 () Bool (or param_etat_me2.next .def_1239))
(define-fun .def_1236 () Bool (= call_mesi.ite26.next call_mesi.ite31.next))
(define-fun .def_1218 () Bool (not param_etat_me2.next))
(define-fun .def_1237 () Bool (or .def_1218 .def_1236))
(define-fun .def_1232 () Bool (= call_mesi.ite22.next call_mesi.ite23.next))
(define-fun .def_1233 () Bool (or param_etat_me2.next .def_1232))
(define-fun .def_1229 () Bool (= call_mesi.ite18.next call_mesi.ite23.next))
(define-fun .def_1230 () Bool (or .def_1218 .def_1229))
(define-fun .def_1225 () Bool (= call_mesi.ite14.next call_mesi.ite15.next))
(define-fun .def_1226 () Bool (or param_etat_me2.next .def_1225))
(define-fun .def_1222 () Bool (= call_mesi.ite10.next call_mesi.ite15.next))
(define-fun .def_1223 () Bool (or .def_1218 .def_1222))
(define-fun .def_1217 () Bool (= call_mesi.ite2.next call_mesi.ite7.next))
(define-fun .def_1219 () Bool (or .def_1217 .def_1218))
(define-fun .def_1214 () Bool (= call_mesi.ite6.next call_mesi.ite7.next))
(define-fun .def_1216 () Bool (or .def_1214 param_etat_me2.next))
(define-fun .def_1220 () Bool (and .def_1216 .def_1219))
(define-fun .def_1224 () Bool (and .def_1220 .def_1223))
(define-fun .def_1227 () Bool (and .def_1224 .def_1226))
(define-fun .def_1231 () Bool (and .def_1227 .def_1230))
(define-fun .def_1234 () Bool (and .def_1231 .def_1233))
(define-fun .def_1238 () Bool (and .def_1234 .def_1237))
(define-fun .def_1241 () Bool (and .def_1238 .def_1240))
(define-fun .def_1210 () Bool (= call_mesi.ite29.next call_mesi.ite30.next))
(define-fun .def_1211 () Bool (or param_etat_me3.next .def_1210))
(define-fun .def_1207 () Bool (= call_mesi.ite27.next call_mesi.ite30.next))
(define-fun .def_1189 () Bool (not param_etat_me3.next))
(define-fun .def_1208 () Bool (or .def_1189 .def_1207))
(define-fun .def_1203 () Bool (= call_mesi.ite21.next call_mesi.ite22.next))
(define-fun .def_1204 () Bool (or param_etat_me3.next .def_1203))
(define-fun .def_1200 () Bool (= call_mesi.ite19.next call_mesi.ite22.next))
(define-fun .def_1201 () Bool (or .def_1189 .def_1200))
(define-fun .def_1196 () Bool (= call_mesi.ite13.next call_mesi.ite14.next))
(define-fun .def_1197 () Bool (or param_etat_me3.next .def_1196))
(define-fun .def_1193 () Bool (= call_mesi.ite11.next call_mesi.ite14.next))
(define-fun .def_1194 () Bool (or .def_1189 .def_1193))
(define-fun .def_1188 () Bool (= call_mesi.ite3.next call_mesi.ite6.next))
(define-fun .def_1190 () Bool (or .def_1188 .def_1189))
(define-fun .def_1185 () Bool (= call_mesi.ite5.next call_mesi.ite6.next))
(define-fun .def_1187 () Bool (or .def_1185 param_etat_me3.next))
(define-fun .def_1191 () Bool (and .def_1187 .def_1190))
(define-fun .def_1195 () Bool (and .def_1191 .def_1194))
(define-fun .def_1198 () Bool (and .def_1195 .def_1197))
(define-fun .def_1202 () Bool (and .def_1198 .def_1201))
(define-fun .def_1205 () Bool (and .def_1202 .def_1204))
(define-fun .def_1209 () Bool (and .def_1205 .def_1208))
(define-fun .def_1212 () Bool (and .def_1209 .def_1211))
(define-fun .def_1242 () Bool (and .def_1212 .def_1241))
(define-fun .def_1259 () Bool (and .def_1242 .def_1258))
(define-fun .def_1273 () Bool (and .def_1259 .def_1272))
(define-fun .def_1287 () Bool (and .def_1273 .def_1286))
(define-fun .def_1301 () Bool (and .def_1287 .def_1300))
(define-fun .def_1315 () Bool (and .def_1301 .def_1314))
(define-fun .def_1318 () Bool (and .def_1315 .def_1317))
(define-fun .def_1344 () Bool (and .def_1318 .def_1343))
(define-fun .def_1346 () Bool (and .def_1344 .def_1345))
(define-fun .def_1348 () Bool (and .def_1346 .def_1347))
(define-fun .def_1350 () Bool (and .def_1348 .def_1349))
(define-fun .def_1352 () Bool (and .def_1350 .def_1351))
(define-fun .def_1366 () Bool (and .def_1352 .def_1365))
(define-fun .def_1368 () Bool (and .def_1366 .def_1367))
(define-fun .def_1370 () Bool (and .def_1368 .def_1369))
(define-fun .def_1372 () Bool (and .def_1370 .def_1371))
(define-fun .def_1374 () Bool (and .def_1372 .def_1373))
(define-fun .def_1376 () Bool (and .def_1374 .def_1375))
(define-fun .def_914 () Bool (= call_Abs4.Abs call_Abs4.ite))
(define-fun .def_912 () Bool (= call_Abs3.Abs call_Abs3.ite))
(define-fun .def_910 () Bool (= call_Abs2.Abs call_Abs2.ite))
(define-fun .def_908 () Bool (= call_Abs.Abs call_Abs.ite))
(define-fun .def_906 () Bool (= call_Sofar.Sofar call_Sofar.flby))
(define-fun .def_899 () Bool (and param_etat_me3 param_etat_me4))
(define-fun .def_897 () Bool (and param_etat_me2 param_etat_me4))
(define-fun .def_895 () Bool (and param_etat_me3 param_etat_me2))
(define-fun .def_892 () Bool (and param_etat_me2 param_etat_me1))
(define-fun .def_891 () Bool (and param_etat_me3 param_etat_me1))
(define-fun .def_893 () Bool (or .def_891 .def_892))
(define-fun .def_890 () Bool (and param_etat_me1 param_etat_me4))
(define-fun .def_894 () Bool (or .def_890 .def_893))
(define-fun .def_896 () Bool (or .def_894 .def_895))
(define-fun .def_898 () Bool (or .def_896 .def_897))
(define-fun .def_900 () Bool (or .def_898 .def_899))
(define-fun .def_901 () Bool (not .def_900))
(define-fun .def_903 () Bool (= .def_901 call_excludes4.excludes))
(define-fun .def_887 () Bool (= call_mesi.invalid_me call_mesi.flby4))
(define-fun .def_884 () Bool (= call_mesi.shared_me call_mesi.flby3))
(define-fun .def_881 () Bool (= call_mesi.exclusive_me call_mesi.flby2))
(define-fun .def_878 () Bool (= call_mesi.modified_me call_mesi.flby))
(define-fun .def_873 () Bool (= call_mesi.ite31 call_mesi.ite32))
(define-fun .def_874 () Bool (or param_etat_me1 .def_873))
(define-fun .def_870 () Bool (= call_mesi.ite25 call_mesi.ite32))
(define-fun .def_849 () Bool (not param_etat_me1))
(define-fun .def_871 () Bool (or .def_849 .def_870))
(define-fun .def_865 () Bool (= call_mesi.ite23 call_mesi.ite24))
(define-fun .def_866 () Bool (or param_etat_me1 .def_865))
(define-fun .def_862 () Bool (= call_mesi.ite17 call_mesi.ite24))
(define-fun .def_863 () Bool (or .def_849 .def_862))
(define-fun .def_857 () Bool (= call_mesi.ite15 call_mesi.ite16))
(define-fun .def_858 () Bool (or param_etat_me1 .def_857))
(define-fun .def_854 () Bool (= call_mesi.ite16 call_mesi.ite9))
(define-fun .def_855 () Bool (or .def_849 .def_854))
(define-fun .def_848 () Bool (= call_mesi.ite8 call_mesi.ite))
(define-fun .def_850 () Bool (or .def_848 .def_849))
(define-fun .def_844 () Bool (= call_mesi.ite7 call_mesi.ite8))
(define-fun .def_846 () Bool (or .def_844 param_etat_me1))
(define-fun .def_851 () Bool (and .def_846 .def_850))
(define-fun .def_856 () Bool (and .def_851 .def_855))
(define-fun .def_859 () Bool (and .def_856 .def_858))
(define-fun .def_864 () Bool (and .def_859 .def_863))
(define-fun .def_867 () Bool (and .def_864 .def_866))
(define-fun .def_872 () Bool (and .def_867 .def_871))
(define-fun .def_875 () Bool (and .def_872 .def_874))
(define-fun .def_841 () Bool (= env call_Sofar.Sofar))
(define-fun .def_837 () Bool (= invalid_me call_mesi.invalid_me))
(define-fun .def_832 () Int (+ invalid_me call_Abs4.ite))
(define-fun .def_833 () Bool (= .def_832 0))
(define-fun .def_829 () Bool (<= 0 invalid_me))
(define-fun .def_834 () Bool (or .def_829 .def_833))
(define-fun .def_830 () Bool (not .def_829))
(define-fun .def_828 () Bool (= invalid_me call_Abs4.ite))
(define-fun .def_831 () Bool (or .def_828 .def_830))
(define-fun .def_835 () Bool (and .def_831 .def_834))
(define-fun .def_838 () Bool (and .def_835 .def_837))
(define-fun .def_823 () Bool (= shared_me call_mesi.shared_me))
(define-fun .def_818 () Int (+ shared_me call_Abs3.ite))
(define-fun .def_819 () Bool (= .def_818 0))
(define-fun .def_815 () Bool (<= 0 shared_me))
(define-fun .def_820 () Bool (or .def_815 .def_819))
(define-fun .def_816 () Bool (not .def_815))
(define-fun .def_814 () Bool (= shared_me call_Abs3.ite))
(define-fun .def_817 () Bool (or .def_814 .def_816))
(define-fun .def_821 () Bool (and .def_817 .def_820))
(define-fun .def_824 () Bool (and .def_821 .def_823))
(define-fun .def_809 () Bool (= exclusive_me call_mesi.exclusive_me))
(define-fun .def_804 () Int (+ exclusive_me call_Abs2.ite))
(define-fun .def_805 () Bool (= .def_804 0))
(define-fun .def_801 () Bool (<= 0 exclusive_me))
(define-fun .def_806 () Bool (or .def_801 .def_805))
(define-fun .def_802 () Bool (not .def_801))
(define-fun .def_800 () Bool (= exclusive_me call_Abs2.ite))
(define-fun .def_803 () Bool (or .def_800 .def_802))
(define-fun .def_807 () Bool (and .def_803 .def_806))
(define-fun .def_810 () Bool (and .def_807 .def_809))
(define-fun .def_795 () Bool (= modified_me call_mesi.modified_me))
(define-fun .def_790 () Int (+ modified_me call_Abs.ite))
(define-fun .def_791 () Bool (= .def_790 0))
(define-fun .def_787 () Bool (<= 0 modified_me))
(define-fun .def_792 () Bool (or .def_787 .def_791))
(define-fun .def_788 () Bool (not .def_787))
(define-fun .def_786 () Bool (= modified_me call_Abs.ite))
(define-fun .def_789 () Bool (or .def_786 .def_788))
(define-fun .def_793 () Bool (and .def_789 .def_792))
(define-fun .def_796 () Bool (and .def_793 .def_795))
(define-fun .def_777 () Int (+ call_Abs3.Abs call_Abs4.Abs))
(define-fun .def_778 () Int (+ call_Abs2.Abs .def_777))
(define-fun .def_779 () Int (+ call_Abs.Abs .def_778))
(define-fun .def_780 () Bool (<= .def_779 3))
(define-fun .def_769 () Bool (not env))
(define-fun .def_781 () Bool (or .def_769 .def_780))
(define-fun .def_782 () Bool (= _OK_ .def_781))
(define-fun .def_763 () Bool (= call_mesi.ite30 call_mesi.ite31))
(define-fun .def_764 () Bool (or param_etat_me2 .def_763))
(define-fun .def_760 () Bool (= call_mesi.ite26 call_mesi.ite31))
(define-fun .def_739 () Bool (not param_etat_me2))
(define-fun .def_761 () Bool (or .def_739 .def_760))
(define-fun .def_755 () Bool (= call_mesi.ite22 call_mesi.ite23))
(define-fun .def_756 () Bool (or param_etat_me2 .def_755))
(define-fun .def_752 () Bool (= call_mesi.ite18 call_mesi.ite23))
(define-fun .def_753 () Bool (or .def_739 .def_752))
(define-fun .def_747 () Bool (= call_mesi.ite14 call_mesi.ite15))
(define-fun .def_748 () Bool (or param_etat_me2 .def_747))
(define-fun .def_744 () Bool (= call_mesi.ite10 call_mesi.ite15))
(define-fun .def_745 () Bool (or .def_739 .def_744))
(define-fun .def_738 () Bool (= call_mesi.ite7 call_mesi.ite2))
(define-fun .def_740 () Bool (or .def_738 .def_739))
(define-fun .def_734 () Bool (= call_mesi.ite6 call_mesi.ite7))
(define-fun .def_736 () Bool (or .def_734 param_etat_me2))
(define-fun .def_741 () Bool (and .def_736 .def_740))
(define-fun .def_746 () Bool (and .def_741 .def_745))
(define-fun .def_749 () Bool (and .def_746 .def_748))
(define-fun .def_754 () Bool (and .def_749 .def_753))
(define-fun .def_757 () Bool (and .def_754 .def_756))
(define-fun .def_762 () Bool (and .def_757 .def_761))
(define-fun .def_765 () Bool (and .def_762 .def_764))
(define-fun .def_730 () Bool (= call_mesi.ite30 call_mesi.ite29))
(define-fun .def_731 () Bool (or param_etat_me3 .def_730))
(define-fun .def_726 () Bool (= call_mesi.ite27 call_mesi.ite30))
(define-fun .def_703 () Bool (not param_etat_me3))
(define-fun .def_727 () Bool (or .def_703 .def_726))
(define-fun .def_721 () Bool (= call_mesi.ite22 call_mesi.ite21))
(define-fun .def_722 () Bool (or param_etat_me3 .def_721))
(define-fun .def_717 () Bool (= call_mesi.ite22 call_mesi.ite19))
(define-fun .def_718 () Bool (or .def_703 .def_717))
(define-fun .def_712 () Bool (= call_mesi.ite14 call_mesi.ite13))
(define-fun .def_713 () Bool (or param_etat_me3 .def_712))
(define-fun .def_708 () Bool (= call_mesi.ite14 call_mesi.ite11))
(define-fun .def_709 () Bool (or .def_703 .def_708))
(define-fun .def_702 () Bool (= call_mesi.ite6 call_mesi.ite3))
(define-fun .def_704 () Bool (or .def_702 .def_703))
(define-fun .def_698 () Bool (= call_mesi.ite6 call_mesi.ite5))
(define-fun .def_700 () Bool (or .def_698 param_etat_me3))
(define-fun .def_705 () Bool (and .def_700 .def_704))
(define-fun .def_710 () Bool (and .def_705 .def_709))
(define-fun .def_714 () Bool (and .def_710 .def_713))
(define-fun .def_719 () Bool (and .def_714 .def_718))
(define-fun .def_723 () Bool (and .def_719 .def_722))
(define-fun .def_728 () Bool (and .def_723 .def_727))
(define-fun .def_732 () Bool (and .def_728 .def_731))
(define-fun .def_766 () Bool (and .def_732 .def_765))
(define-fun .def_783 () Bool (and .def_766 .def_782))
(define-fun .def_797 () Bool (and .def_783 .def_796))
(define-fun .def_811 () Bool (and .def_797 .def_810))
(define-fun .def_825 () Bool (and .def_811 .def_824))
(define-fun .def_839 () Bool (and .def_825 .def_838))
(define-fun .def_842 () Bool (and .def_839 .def_841))
(define-fun .def_876 () Bool (and .def_842 .def_875))
(define-fun .def_879 () Bool (and .def_876 .def_878))
(define-fun .def_882 () Bool (and .def_879 .def_881))
(define-fun .def_885 () Bool (and .def_882 .def_884))
(define-fun .def_888 () Bool (and .def_885 .def_887))
(define-fun .def_904 () Bool (and .def_888 .def_903))
(define-fun .def_907 () Bool (and .def_904 .def_906))
(define-fun .def_909 () Bool (and .def_907 .def_908))
(define-fun .def_911 () Bool (and .def_909 .def_910))
(define-fun .def_913 () Bool (and .def_911 .def_912))
(define-fun .def_915 () Bool (and .def_913 .def_914))
(define-fun .def_1377 () Bool (and .def_915 .def_1376))
(define-fun .def_1180 () Bool (and call_Sofar.Sofar call_excludes4.excludes.next))
(define-fun .def_1182 () Bool (= .def_1180 call_Sofar.flby.next))
(define-fun .def_1177 () Bool (= call_mesi.ite32.next call_mesi.flby4.next))
(define-fun .def_1173 () Bool (= call_mesi.ite24.next call_mesi.flby3.next))
(define-fun .def_1169 () Bool (= call_mesi.ite16.next call_mesi.flby2.next))
(define-fun .def_1165 () Bool (= call_mesi.ite8.next call_mesi.flby.next))
(define-fun .def_1133 () Bool (<= 1 call_mesi.invalid_me))
(define-fun .def_1160 () Bool (= call_mesi.garde_me4.next .def_1133))
(define-fun .def_1157 () Bool (= call_mesi.ite20.next 0))
(define-fun .def_1036 () Bool (not call_mesi.garde_me4.next))
(define-fun .def_1158 () Bool (or .def_1036 .def_1157))
(define-fun .def_1154 () Bool (= call_mesi.ite4.next 0))
(define-fun .def_1155 () Bool (or .def_1036 .def_1154))
(define-fun .def_1152 () Bool (= call_mesi.ite12.next 1))
(define-fun .def_1153 () Bool (or .def_1036 .def_1152))
(define-fun .def_1156 () Bool (and .def_1153 .def_1155))
(define-fun .def_1159 () Bool (and .def_1156 .def_1158))
(define-fun .def_1161 () Bool (and .def_1159 .def_1160))
(define-fun .def_1148 () Bool (<= 1 call_mesi.shared_me))
(define-fun .def_1149 () Bool (= call_mesi.garde_me3.next .def_1148))
(define-fun .def_1145 () Bool (= call_mesi.ite19.next 0))
(define-fun .def_1022 () Bool (not call_mesi.garde_me3.next))
(define-fun .def_1146 () Bool (or .def_1022 .def_1145))
(define-fun .def_1142 () Bool (= call_mesi.ite3.next 0))
(define-fun .def_1143 () Bool (or .def_1022 .def_1142))
(define-fun .def_1140 () Bool (= call_mesi.ite11.next 1))
(define-fun .def_1141 () Bool (or .def_1022 .def_1140))
(define-fun .def_1144 () Bool (and .def_1141 .def_1143))
(define-fun .def_1147 () Bool (and .def_1144 .def_1146))
(define-fun .def_1150 () Bool (and .def_1147 .def_1149))
(define-fun .def_1137 () Bool (<= 1 call_mesi.exclusive_me))
(define-fun .def_1138 () Bool (= call_mesi.garde_me2.next .def_1137))
(define-fun .def_1134 () Bool (= call_mesi.garde_me1.next .def_1133))
(define-fun .def_1130 () Bool (= call_mesi.ite.next 0))
(define-fun .def_1008 () Bool (not call_mesi.garde_me1.next))
(define-fun .def_1131 () Bool (or .def_1008 .def_1130))
(define-fun .def_1128 () Bool (= call_mesi.ite9.next 0))
(define-fun .def_1129 () Bool (or .def_1008 .def_1128))
(define-fun .def_1132 () Bool (and .def_1129 .def_1131))
(define-fun .def_1135 () Bool (and .def_1132 .def_1134))
(define-fun .def_1124 () Bool (= call_mesi.invalid_me call_mesi.ite28.next))
(define-fun .def_1125 () Bool (or call_mesi.garde_me4.next .def_1124))
(define-fun .def_1121 () Bool (= call_mesi.invalid_me call_mesi.ite27.next))
(define-fun .def_1122 () Bool (or call_mesi.garde_me3.next .def_1121))
(define-fun .def_1116 () Bool (= call_mesi.invalid_me call_mesi.ite26.next))
(define-fun .def_1119 () Bool (or call_mesi.garde_me2.next .def_1116))
(define-fun .def_978 () Bool (not call_mesi.garde_me2.next))
(define-fun .def_1117 () Bool (or .def_978 .def_1116))
(define-fun .def_1110 () Int (* (- 1) call_mesi.ite25.next))
(define-fun .def_1111 () Int (+ call_mesi.invalid_me .def_1110))
(define-fun .def_1112 () Bool (= .def_1111 1))
(define-fun .def_1113 () Bool (or .def_1008 .def_1112))
(define-fun .def_1108 () Bool (= call_mesi.invalid_me call_mesi.ite25.next))
(define-fun .def_1109 () Bool (or call_mesi.garde_me1.next .def_1108))
(define-fun .def_1114 () Bool (and .def_1109 .def_1113))
(define-fun .def_1118 () Bool (and .def_1114 .def_1117))
(define-fun .def_1120 () Bool (and .def_1118 .def_1119))
(define-fun .def_1123 () Bool (and .def_1120 .def_1122))
(define-fun .def_1126 () Bool (and .def_1123 .def_1125))
(define-fun .def_1103 () Bool (= call_mesi.shared_me call_mesi.ite20.next))
(define-fun .def_1104 () Bool (or call_mesi.garde_me4.next .def_1103))
(define-fun .def_1100 () Bool (= call_mesi.shared_me call_mesi.ite19.next))
(define-fun .def_1101 () Bool (or call_mesi.garde_me3.next .def_1100))
(define-fun .def_1092 () Bool (= call_mesi.shared_me call_mesi.ite18.next))
(define-fun .def_1097 () Bool (or call_mesi.garde_me2.next .def_1092))
(define-fun .def_1094 () Bool (= call_mesi.shared_me call_mesi.ite17.next))
(define-fun .def_1095 () Bool (or call_mesi.garde_me1.next .def_1094))
(define-fun .def_1093 () Bool (or .def_978 .def_1092))
(define-fun .def_1096 () Bool (and .def_1093 .def_1095))
(define-fun .def_1098 () Bool (and .def_1096 .def_1097))
(define-fun .def_1102 () Bool (and .def_1098 .def_1101))
(define-fun .def_1105 () Bool (and .def_1102 .def_1104))
(define-fun .def_1087 () Bool (= call_mesi.exclusive_me call_mesi.ite12.next))
(define-fun .def_1088 () Bool (or call_mesi.garde_me4.next .def_1087))
(define-fun .def_1084 () Bool (= call_mesi.exclusive_me call_mesi.ite11.next))
(define-fun .def_1085 () Bool (or call_mesi.garde_me3.next .def_1084))
(define-fun .def_1080 () Bool (= call_mesi.exclusive_me call_mesi.ite10.next))
(define-fun .def_1081 () Bool (or call_mesi.garde_me2.next .def_1080))
(define-fun .def_1077 () Bool (= call_mesi.exclusive_me call_mesi.ite9.next))
(define-fun .def_1078 () Bool (or call_mesi.garde_me1.next .def_1077))
(define-fun .def_1072 () Int (* (- 1) call_mesi.ite10.next))
(define-fun .def_1073 () Int (+ call_mesi.exclusive_me .def_1072))
(define-fun .def_1074 () Bool (= .def_1073 1))
(define-fun .def_1075 () Bool (or .def_978 .def_1074))
(define-fun .def_1079 () Bool (and .def_1075 .def_1078))
(define-fun .def_1082 () Bool (and .def_1079 .def_1081))
(define-fun .def_1086 () Bool (and .def_1082 .def_1085))
(define-fun .def_1089 () Bool (and .def_1086 .def_1088))
(define-fun .def_1067 () Bool (= call_mesi.invalid_me call_mesi.ite29.next))
(define-fun .def_1068 () Bool (or param_etat_me4.next .def_1067))
(define-fun .def_1064 () Bool (= call_mesi.ite28.next call_mesi.ite29.next))
(define-fun .def_1044 () Bool (not param_etat_me4.next))
(define-fun .def_1065 () Bool (or .def_1044 .def_1064))
(define-fun .def_1060 () Bool (= call_mesi.shared_me call_mesi.ite21.next))
(define-fun .def_1061 () Bool (or param_etat_me4.next .def_1060))
(define-fun .def_1057 () Bool (= call_mesi.ite20.next call_mesi.ite21.next))
(define-fun .def_1058 () Bool (or .def_1044 .def_1057))
(define-fun .def_1052 () Bool (= call_mesi.exclusive_me call_mesi.ite13.next))
(define-fun .def_1053 () Bool (or param_etat_me4.next .def_1052))
(define-fun .def_1049 () Bool (= call_mesi.ite12.next call_mesi.ite13.next))
(define-fun .def_1050 () Bool (or .def_1044 .def_1049))
(define-fun .def_1043 () Bool (= call_mesi.ite4.next call_mesi.ite5.next))
(define-fun .def_1045 () Bool (or .def_1043 .def_1044))
(define-fun .def_1040 () Bool (= call_mesi.modified_me call_mesi.ite5.next))
(define-fun .def_1042 () Bool (or .def_1040 param_etat_me4.next))
(define-fun .def_1046 () Bool (and .def_1042 .def_1045))
(define-fun .def_1051 () Bool (and .def_1046 .def_1050))
(define-fun .def_1054 () Bool (and .def_1051 .def_1053))
(define-fun .def_1059 () Bool (and .def_1054 .def_1058))
(define-fun .def_1062 () Bool (and .def_1059 .def_1061))
(define-fun .def_1066 () Bool (and .def_1062 .def_1065))
(define-fun .def_1069 () Bool (and .def_1066 .def_1068))
(define-fun .def_1026 () Int (* (- 1) call_mesi.ite28.next))
(define-fun .def_1031 () Int (+ call_mesi.invalid_me .def_1026))
(define-fun .def_1032 () Int (+ call_mesi.shared_me .def_1031))
(define-fun .def_1033 () Int (+ call_mesi.exclusive_me .def_1032))
(define-fun .def_1034 () Int (+ call_mesi.modified_me .def_1033))
(define-fun .def_1035 () Bool (= .def_1034 1))
(define-fun .def_1037 () Bool (or .def_1035 .def_1036))
(define-fun .def_1012 () Int (* (- 1) call_mesi.ite27.next))
(define-fun .def_1017 () Int (+ call_mesi.invalid_me .def_1012))
(define-fun .def_1018 () Int (+ call_mesi.shared_me .def_1017))
(define-fun .def_1019 () Int (+ call_mesi.exclusive_me .def_1018))
(define-fun .def_1020 () Int (+ call_mesi.modified_me .def_1019))
(define-fun .def_1021 () Bool (= .def_1020 1))
(define-fun .def_1023 () Bool (or .def_1021 .def_1022))
(define-fun .def_999 () Int (* (- 1) call_mesi.ite17.next))
(define-fun .def_1004 () Int (+ call_mesi.shared_me .def_999))
(define-fun .def_1001 () Int (* (- 1) call_mesi.exclusive_me))
(define-fun .def_1005 () Int (+ .def_1001 .def_1004))
(define-fun .def_1006 () Int (+ call_mesi.modified_me .def_1005))
(define-fun .def_1007 () Bool (= .def_1006 1))
(define-fun .def_1009 () Bool (or .def_1007 .def_1008))
(define-fun .def_994 () Bool (= call_mesi.modified_me call_mesi.ite4.next))
(define-fun .def_996 () Bool (or .def_994 call_mesi.garde_me4.next))
(define-fun .def_989 () Bool (= call_mesi.modified_me call_mesi.ite3.next))
(define-fun .def_991 () Bool (or .def_989 call_mesi.garde_me3.next))
(define-fun .def_985 () Bool (= call_mesi.modified_me call_mesi.ite2.next))
(define-fun .def_986 () Bool (or call_mesi.garde_me2.next .def_985))
(define-fun .def_981 () Bool (= call_mesi.modified_me call_mesi.ite.next))
(define-fun .def_983 () Bool (or .def_981 call_mesi.garde_me1.next))
(define-fun .def_974 () Int (* (- 1) call_mesi.ite2.next))
(define-fun .def_975 () Int (+ call_mesi.modified_me .def_974))
(define-fun .def_976 () Bool (= .def_975 1))
(define-fun .def_979 () Bool (or .def_976 .def_978))
(define-fun .def_984 () Bool (and .def_979 .def_983))
(define-fun .def_987 () Bool (and .def_984 .def_986))
(define-fun .def_992 () Bool (and .def_987 .def_991))
(define-fun .def_997 () Bool (and .def_992 .def_996))
(define-fun .def_1010 () Bool (and .def_997 .def_1009))
(define-fun .def_1024 () Bool (and .def_1010 .def_1023))
(define-fun .def_1038 () Bool (and .def_1024 .def_1037))
(define-fun .def_1070 () Bool (and .def_1038 .def_1069))
(define-fun .def_1090 () Bool (and .def_1070 .def_1089))
(define-fun .def_1106 () Bool (and .def_1090 .def_1105))
(define-fun .def_1127 () Bool (and .def_1106 .def_1126))
(define-fun .def_1136 () Bool (and .def_1127 .def_1135))
(define-fun .def_1139 () Bool (and .def_1136 .def_1138))
(define-fun .def_1151 () Bool (and .def_1139 .def_1150))
(define-fun .def_1162 () Bool (and .def_1151 .def_1161))
(define-fun .def_1166 () Bool (and .def_1162 .def_1165))
(define-fun .def_1170 () Bool (and .def_1166 .def_1169))
(define-fun .def_1174 () Bool (and .def_1170 .def_1173))
(define-fun .def_1178 () Bool (and .def_1174 .def_1177))
(define-fun .def_1183 () Bool (and .def_1178 .def_1182))
(define-fun .def_1378 () Bool (and .def_1183 .def_1377))
(assert .def_1378)
